n_res = 4;
rc = [ 18, 21, 21, 18 ];
n_tasks = 30;
d = [ 4, 1, 8, 1, 6, 2, 4, 2, 5, 3, 4, 8, 7, 8, 6, 8, 2, 9, 9, 8, 7, 10, 5, 9, 9, 7, 7, 3, 9, 9 ];
rr = [| 0, 4, 0, 4, 0, 1, 3, 2, 0, 7, 1, 4, 3, 2, 2, 3, 0, 0, 8, 0, 8, 0, 4, 10, 3, 6, 0, 3, 9, 9
      | 4, 1, 6, 0, 5, 4, 0, 9, 4, 0, 1, 10, 6, 4, 0, 6, 6, 0, 0, 1, 4, 0, 5, 0, 0, 3, 6, 4, 6, 2
      | 5, 0, 1, 1, 0, 5, 9, 9, 5, 9, 7, 3, 7, 0, 5, 1, 3, 6, 4, 0, 10, 7, 10, 2, 10, 4, 5, 2, 9, 5
      | 2, 0, 0, 0, 5, 0, 9, 5, 5, 4, 7, 6, 3, 5, 5, 4, 8, 5, 10, 2, 8, 0, 0, 5, 5, 5, 2, 0, 2, 9 |];
suc = [ { 6, 7, 16 },
       { 4, 10, 11 },
       { 5, 9, 12 },
       { 5, 7, 14 },
       { 8, 15, 21 },
       { 17, 20 },
       { 8, 13, 25 },
       { 19, 24, 28 },
       { 13, 20, 23 },
       { 12, 13, 14 },
       { 12, 15, 20 },
       { 16, 21 },
       { 22, 28, 30 },
       { 18, 22, 27 },
       { 16, 17, 24 },
       { 18, 27 },
       { 19, 23 },
       { 19, 25 },
       { 29 },
       { 26, 27 },
       { 22, 30 },
       { 24 },
       { 25, 28, 30 },
       { 26 },
       { 26 },
       { 29 },
       { 29 },
       {  },
       {  },
       {  } ];
